words_hard_train/6922.qaiger
aag 80 16 0 1 64
2
4
8
12
16
20
24
32
44
58
68
76
82
92
132
144
160
6 3 5
10 6 9
14 10 13
18 14 17
22 19 20
26 23 25
28 22 24
30 27 29
34 33 12
36 35 10
38 37 16
40 36 17
42 39 41
46 42 44
48 43 45
50 35 3
52 50 9
54 53 4
56 37 55
60 57 59
62 49 61
64 51 8
66 65 53
70 66 68
72 56 58
74 71 73
78 76 13
80 79 35
84 83 33
86 76 12
88 84 87
90 81 89
94 90 92
96 34 2
98 97 51
100 95 99
102 67 69
104 101 103
106 91 93
108 104 107
110 74 109
112 62 111
114 47 113
116 12 17
118 116 32
120 118 10
122 18 21
124 123 23
126 121 124
128 120 125
130 127 129
134 131 133
136 115 135
138 130 132
140 137 139
142 31 141
146 128 145
148 142 147
150 129 144
152 151 143
154 149 153
156 30 140
158 156 147
160 155 159
i0 2 y2[2]
i1 2 y2[4]
i2 2 y2[3]
i3 2 y2[1]
i4 2 y2[5]
i5 2 y2[6]
i6 2 y2[7]
i7 2 y2[0]
i8 1 x1[5]
i9 1 x1[4]
i10 1 x1[3]
i11 1 x1[1]
i12 1 x1[0]
i13 1 x1[2]
i14 1 x1[6]
i15 1 x1[7]
o0 bv[0]
c
simplified
  >=
    1 x1
    add
      unary minus
        -190
      xor
        2 y2
        1
