words_hard_train/6922.qaiger.qdimacs
p cnf 80 193
a 34 66 38 72 41 46 22 29 0
e 1 2 3 4 5 6 7 8 9 10 11 12 13 14 15 16 17 18 19 20 21 23 24 25 26 27 28 30 31 32 33 35 36 37 39 40 42 43 44 45 47 48 49 50 51 52 53 54 55 56 57 58 59 60 61 62 63 64 65 67 68 69 70 71 73 74 75 76 77 78 79 80 0
1 2 3 0
-1 -3 0
-2 -3 0
-3 4 5 0
3 -5 0
-4 -5 0
-5 6 7 0
5 -7 0
-6 -7 0
-7 8 9 0
7 -9 0
-8 -9 0
9 -10 11 0
-9 -11 0
10 -11 0
11 12 13 0
-11 -13 0
-12 -13 0
-11 -12 14 0
11 -14 0
12 -14 0
13 14 15 0
-13 -15 0
-14 -15 0
16 -6 17 0
-16 -17 0
6 -17 0
17 -5 18 0
-17 -18 0
5 -18 0
18 -8 19 0
-18 -19 0
8 -19 0
-18 8 20 0
18 -20 0
-8 -20 0
19 20 21 0
-19 -21 0
-20 -21 0
-21 -22 23 0
21 -23 0
22 -23 0
21 22 24 0
-21 -24 0
-22 -24 0
17 1 25 0
-17 -25 0
-1 -25 0
-25 4 26 0
25 -26 0
-4 -26 0
26 -2 27 0
-26 -27 0
2 -27 0
18 27 28 0
-18 -28 0
-27 -28 0
28 29 30 0
-28 -30 0
-29 -30 0
24 30 31 0
-24 -31 0
-30 -31 0
25 -4 32 0
-25 -32 0
4 -32 0
32 26 33 0
-32 -33 0
-26 -33 0
-33 -34 35 0
33 -35 0
34 -35 0
-28 -29 36 0
28 -36 0
29 -36 0
35 36 37 0
-35 -37 0
-36 -37 0
-38 6 39 0
38 -39 0
-6 -39 0
39 17 40 0
-39 -40 0
-17 -40 0
41 16 42 0
-41 -42 0
-16 -42 0
-38 -6 43 0
38 -43 0
6 -43 0
-42 43 44 0
42 -44 0
-43 -44 0
40 44 45 0
-40 -45 0
-44 -45 0
-45 -46 47 0
45 -47 0
46 -47 0
-17 -1 48 0
17 -48 0
1 -48 0
48 25 49 0
-48 -49 0
-25 -49 0
47 49 50 0
-47 -50 0
-49 -50 0
33 34 51 0
-33 -51 0
-34 -51 0
50 51 52 0
-50 -52 0
-51 -52 0
45 46 53 0
-45 -53 0
-46 -53 0
-52 53 54 0
52 -54 0
-53 -54 0
-37 54 55 0
37 -55 0
-54 -55 0
-31 55 56 0
31 -56 0
-55 -56 0
23 56 57 0
-23 -57 0
-56 -57 0
-6 8 58 0
6 -58 0
-8 -58 0
-58 -16 59 0
58 -59 0
16 -59 0
-59 -5 60 0
59 -60 0
5 -60 0
-9 10 61 0
9 -61 0
-10 -61 0
61 11 62 0
-61 -62 0
-11 -62 0
60 -62 63 0
-60 -63 0
62 -63 0
-60 62 64 0
60 -64 0
-62 -64 0
63 64 65 0
-63 -65 0
-64 -65 0
65 66 67 0
-65 -67 0
-66 -67 0
57 67 68 0
-57 -68 0
-67 -68 0
-65 -66 69 0
65 -69 0
66 -69 0
68 69 70 0
-68 -70 0
-69 -70 0
15 70 71 0
-15 -71 0
-70 -71 0
-64 72 73 0
64 -73 0
-72 -73 0
-71 73 74 0
71 -74 0
-73 -74 0
64 -72 75 0
-64 -75 0
72 -75 0
75 71 76 0
-75 -76 0
-71 -76 0
74 76 77 0
-74 -77 0
-76 -77 0
-15 -70 78 0
15 -78 0
70 -78 0
-78 73 79 0
78 -79 0
-73 -79 0
77 79 80 0
-77 -80 0
-79 -80 0
80 0
